c File: flat50_3_0.col
c
c SOURCE: Joseph Culberson (joe@cs.ualberta.ca)
c DESCRIPTION: Quasi-random coloring problem
c              generated with flatness = 0
c                             probability = 0.139
c                             known coloring = 3
c                             random seed = 1365
c              Creation Date:  Tue Jun  9 12:07:34 1998
c Maximum degree = 8 Minimum degree = 1
c p edge 50 115
c cnf created by edge2cnf
p cnf 150 545
-1 -2 0
-1 -3 0
-2 -3 0
1 2 3 0
-4 -5 0
-4 -6 0
-5 -6 0
4 5 6 0
-7 -8 0
-7 -9 0
-8 -9 0
7 8 9 0
-10 -11 0
-10 -12 0
-11 -12 0
10 11 12 0
-13 -14 0
-13 -15 0
-14 -15 0
13 14 15 0
-16 -17 0
-16 -18 0
-17 -18 0
16 17 18 0
-19 -20 0
-19 -21 0
-20 -21 0
19 20 21 0
-22 -23 0
-22 -24 0
-23 -24 0
22 23 24 0
-25 -26 0
-25 -27 0
-26 -27 0
25 26 27 0
-28 -29 0
-28 -30 0
-29 -30 0
28 29 30 0
-31 -32 0
-31 -33 0
-32 -33 0
31 32 33 0
-34 -35 0
-34 -36 0
-35 -36 0
34 35 36 0
-37 -38 0
-37 -39 0
-38 -39 0
37 38 39 0
-40 -41 0
-40 -42 0
-41 -42 0
40 41 42 0
-43 -44 0
-43 -45 0
-44 -45 0
43 44 45 0
-46 -47 0
-46 -48 0
-47 -48 0
46 47 48 0
-49 -50 0
-49 -51 0
-50 -51 0
49 50 51 0
-52 -53 0
-52 -54 0
-53 -54 0
52 53 54 0
-55 -56 0
-55 -57 0
-56 -57 0
55 56 57 0
-58 -59 0
-58 -60 0
-59 -60 0
58 59 60 0
-61 -62 0
-61 -63 0
-62 -63 0
61 62 63 0
-64 -65 0
-64 -66 0
-65 -66 0
64 65 66 0
-67 -68 0
-67 -69 0
-68 -69 0
67 68 69 0
-70 -71 0
-70 -72 0
-71 -72 0
70 71 72 0
-73 -74 0
-73 -75 0
-74 -75 0
73 74 75 0
-76 -77 0
-76 -78 0
-77 -78 0
76 77 78 0
-79 -80 0
-79 -81 0
-80 -81 0
79 80 81 0
-82 -83 0
-82 -84 0
-83 -84 0
82 83 84 0
-85 -86 0
-85 -87 0
-86 -87 0
85 86 87 0
-88 -89 0
-88 -90 0
-89 -90 0
88 89 90 0
-91 -92 0
-91 -93 0
-92 -93 0
91 92 93 0
-94 -95 0
-94 -96 0
-95 -96 0
94 95 96 0
-97 -98 0
-97 -99 0
-98 -99 0
97 98 99 0
-100 -101 0
-100 -102 0
-101 -102 0
100 101 102 0
-103 -104 0
-103 -105 0
-104 -105 0
103 104 105 0
-106 -107 0
-106 -108 0
-107 -108 0
106 107 108 0
-109 -110 0
-109 -111 0
-110 -111 0
109 110 111 0
-112 -113 0
-112 -114 0
-113 -114 0
112 113 114 0
-115 -116 0
-115 -117 0
-116 -117 0
115 116 117 0
-118 -119 0
-118 -120 0
-119 -120 0
118 119 120 0
-121 -122 0
-121 -123 0
-122 -123 0
121 122 123 0
-124 -125 0
-124 -126 0
-125 -126 0
124 125 126 0
-127 -128 0
-127 -129 0
-128 -129 0
127 128 129 0
-130 -131 0
-130 -132 0
-131 -132 0
130 131 132 0
-133 -134 0
-133 -135 0
-134 -135 0
133 134 135 0
-136 -137 0
-136 -138 0
-137 -138 0
136 137 138 0
-139 -140 0
-139 -141 0
-140 -141 0
139 140 141 0
-142 -143 0
-142 -144 0
-143 -144 0
142 143 144 0
-145 -146 0
-145 -147 0
-146 -147 0
145 146 147 0
-148 -149 0
-148 -150 0
-149 -150 0
148 149 150 0
-61 -1 0
-62 -2 0
-63 -3 0
-103 -1 0
-104 -2 0
-105 -3 0
-88 -4 0
-89 -5 0
-90 -6 0
-148 -4 0
-149 -5 0
-150 -6 0
-52 -7 0
-53 -8 0
-54 -9 0
-79 -7 0
-80 -8 0
-81 -9 0
-97 -7 0
-98 -8 0
-99 -9 0
-121 -7 0
-122 -8 0
-123 -9 0
-67 -10 0
-68 -11 0
-69 -12 0
-85 -10 0
-86 -11 0
-87 -12 0
-115 -10 0
-116 -11 0
-117 -12 0
-139 -10 0
-140 -11 0
-141 -12 0
-148 -10 0
-149 -11 0
-150 -12 0
-64 -13 0
-65 -14 0
-66 -15 0
-82 -13 0
-83 -14 0
-84 -15 0
-106 -13 0
-107 -14 0
-108 -15 0
-133 -13 0
-134 -14 0
-135 -15 0
-73 -16 0
-74 -17 0
-75 -18 0
-103 -16 0
-104 -17 0
-105 -18 0
-124 -19 0
-125 -20 0
-126 -21 0
-139 -19 0
-140 -20 0
-141 -21 0
-64 -22 0
-65 -23 0
-66 -24 0
-88 -22 0
-89 -23 0
-90 -24 0
-103 -22 0
-104 -23 0
-105 -24 0
-136 -22 0
-137 -23 0
-138 -24 0
-58 -25 0
-59 -26 0
-60 -27 0
-64 -25 0
-65 -26 0
-66 -27 0
-67 -25 0
-68 -26 0
-69 -27 0
-100 -25 0
-101 -26 0
-102 -27 0
-109 -25 0
-110 -26 0
-111 -27 0
-115 -25 0
-116 -26 0
-117 -27 0
-133 -25 0
-134 -26 0
-135 -27 0
-76 -28 0
-77 -29 0
-78 -30 0
-82 -28 0
-83 -29 0
-84 -30 0
-85 -28 0
-86 -29 0
-87 -30 0
-88 -28 0
-89 -29 0
-90 -30 0
-130 -28 0
-131 -29 0
-132 -30 0
-61 -31 0
-62 -32 0
-63 -33 0
-73 -31 0
-74 -32 0
-75 -33 0
-127 -31 0
-128 -32 0
-129 -33 0
-133 -31 0
-134 -32 0
-135 -33 0
-139 -31 0
-140 -32 0
-141 -33 0
-142 -31 0
-143 -32 0
-144 -33 0
-58 -34 0
-59 -35 0
-60 -36 0
-67 -34 0
-68 -35 0
-69 -36 0
-73 -34 0
-74 -35 0
-75 -36 0
-85 -34 0
-86 -35 0
-87 -36 0
-124 -34 0
-125 -35 0
-126 -36 0
-139 -34 0
-140 -35 0
-141 -36 0
-67 -37 0
-68 -38 0
-69 -39 0
-82 -37 0
-83 -38 0
-84 -39 0
-103 -37 0
-104 -38 0
-105 -39 0
-85 -40 0
-86 -41 0
-87 -42 0
-94 -40 0
-95 -41 0
-96 -42 0
-97 -40 0
-98 -41 0
-99 -42 0
-118 -40 0
-119 -41 0
-120 -42 0
-133 -40 0
-134 -41 0
-135 -42 0
-142 -40 0
-143 -41 0
-144 -42 0
-148 -40 0
-149 -41 0
-150 -42 0
-61 -43 0
-62 -44 0
-63 -45 0
-70 -43 0
-71 -44 0
-72 -45 0
-109 -43 0
-110 -44 0
-111 -45 0
-130 -43 0
-131 -44 0
-132 -45 0
-58 -46 0
-59 -47 0
-60 -48 0
-64 -46 0
-65 -47 0
-66 -48 0
-70 -46 0
-71 -47 0
-72 -48 0
-82 -46 0
-83 -47 0
-84 -48 0
-115 -46 0
-116 -47 0
-117 -48 0
-118 -46 0
-119 -47 0
-120 -48 0
-130 -46 0
-131 -47 0
-132 -48 0
-142 -46 0
-143 -47 0
-144 -48 0
-88 -49 0
-89 -50 0
-90 -51 0
-91 -49 0
-92 -50 0
-93 -51 0
-94 -49 0
-95 -50 0
-96 -51 0
-109 -49 0
-110 -50 0
-111 -51 0
-136 -49 0
-137 -50 0
-138 -51 0
-148 -49 0
-149 -50 0
-150 -51 0
-115 -52 0
-116 -53 0
-117 -54 0
-112 -55 0
-113 -56 0
-114 -57 0
-118 -55 0
-119 -56 0
-120 -57 0
-145 -55 0
-146 -56 0
-147 -57 0
-112 -58 0
-113 -59 0
-114 -60 0
-121 -58 0
-122 -59 0
-123 -60 0
-130 -58 0
-131 -59 0
-132 -60 0
-139 -58 0
-140 -59 0
-141 -60 0
-121 -61 0
-122 -62 0
-123 -63 0
-142 -64 0
-143 -65 0
-144 -66 0
-109 -67 0
-110 -68 0
-111 -69 0
-115 -70 0
-116 -71 0
-117 -72 0
-130 -70 0
-131 -71 0
-132 -72 0
-145 -70 0
-146 -71 0
-147 -72 0
-106 -73 0
-107 -74 0
-108 -75 0
-127 -73 0
-128 -74 0
-129 -75 0
-139 -73 0
-140 -74 0
-141 -75 0
-148 -73 0
-149 -74 0
-150 -75 0
-145 -79 0
-146 -80 0
-147 -81 0
-109 -82 0
-110 -83 0
-111 -84 0
-118 -82 0
-119 -83 0
-120 -84 0
-127 -82 0
-128 -83 0
-129 -84 0
-136 -82 0
-137 -83 0
-138 -84 0
-139 -85 0
-140 -86 0
-141 -87 0
-103 -88 0
-104 -89 0
-105 -90 0
-121 -88 0
-122 -89 0
-123 -90 0
-130 -88 0
-131 -89 0
-132 -90 0
-136 -88 0
-137 -89 0
-138 -90 0
-106 -91 0
-107 -92 0
-108 -93 0
-118 -91 0
-119 -92 0
-120 -93 0
-127 -91 0
-128 -92 0
-129 -93 0
-109 -94 0
-110 -95 0
-111 -96 0
-142 -94 0
-143 -95 0
-144 -96 0
-103 -97 0
-104 -98 0
-105 -99 0
-121 -97 0
-122 -98 0
-123 -99 0
-130 -97 0
-131 -98 0
-132 -99 0
-139 -97 0
-140 -98 0
-141 -99 0
-109 -100 0
-110 -101 0
-111 -102 0
